This is Ipopt version 3.10.0, running with linear solver ma27.

Number of nonzeros in equality constraint Jacobian...:        0
Number of nonzeros in inequality constraint Jacobian.:       16
Number of nonzeros in Lagrangian Hessian.............:        0

Total number of variables............................:       16
                     variables with only lower bounds:        0
                variables with lower and upper bounds:       16
                     variables with only upper bounds:        0
Total number of equality constraints.................:        0
Total number of inequality constraints...............:        1
        inequality constraints with only lower bounds:        0
   inequality constraints with lower and upper bounds:        0
        inequality constraints with only upper bounds:        1

iter    objective    inf_pr   inf_du lg(mu)  ||d||  lg(rg) alpha_du alpha_pr  ls
   0  3.7749153e-04 3.20e-01 9.96e-01   0.0 0.00e+00    -  0.00e+00 0.00e+00   0
   1  1.4093332e-03 0.00e+00 7.13e-02  -1.6 2.46e-02    -  9.87e-01 1.00e+00h  1
   2  1.4047645e-03 0.00e+00 1.25e-03  -3.5 4.49e-04    -  9.99e-01 1.00e+00h  1
   3  1.3362409e-03 0.00e+00 8.44e-04  -4.7 1.65e-02    -  9.98e-01 1.00e+00h  1
   4  1.2445415e-03 0.00e+00 9.29e-04  -5.4 2.43e-02    -  1.00e+00 1.00e+00h  1
   5  1.1189747e-03 0.00e+00 2.63e-03  -5.6 2.65e-01    -  1.00e+00 1.00e+00h  1
   6  9.1480925e-04 0.00e+00 4.85e-03  -5.3 5.16e-01    -  2.41e-01 1.95e-01h  1
   7  7.8527344e-04 0.00e+00 2.26e-03  -4.8 3.44e-01    -  1.00e+00 1.89e-01h  1
   8  7.3483631e-04 0.00e+00 9.79e-03  -5.1 9.85e-03    -  1.00e+00 1.00e+00h  1
   9  6.9126501e-04 0.00e+00 7.62e-04  -5.6 1.47e-02    -  1.00e+00 1.00e+00h  1
iter    objective    inf_pr   inf_du lg(mu)  ||d||  lg(rg) alpha_du alpha_pr  ls
  10  6.7498510e-04 0.00e+00 5.60e-04  -6.1 8.13e-03    -  1.00e+00 1.00e+00h  1
  11  6.6778325e-04 0.00e+00 1.29e-04  -6.9 1.85e-03    -  1.00e+00 1.00e+00h  1
  12  6.6508474e-04 0.00e+00 4.18e-05  -8.0 1.44e-03    -  1.00e+00 1.00e+00h  1
  13  6.6478206e-04 1.57e-07 4.02e-05  -8.5 1.30e-03    -  1.00e+00 1.00e+00h  1
  14  6.6498834e-04 0.00e+00 1.09e-04  -8.0 5.15e-03    -  1.00e+00 1.00e+00H  1
  15  6.6492071e-04 0.00e+00 1.69e-05  -7.8 3.42e-03    -  1.00e+00 1.00e+00h  1
  16  6.6488163e-04 0.00e+00 2.19e-05  -7.8 6.04e-04    -  1.00e+00 1.00e+00h  1
  17  6.6476007e-04 0.00e+00 1.08e-05  -7.9 1.50e-03    -  1.00e+00 9.98e-01h  1
  18  6.6440618e-04 4.66e-07 1.53e-04  -9.3 3.63e-04    -  1.00e+00 1.00e+00h  1
  19  6.6356054e-04 1.47e-06 8.48e-04  -9.7 8.02e-04    -  1.00e+00 1.00e+00H  1
iter    objective    inf_pr   inf_du lg(mu)  ||d||  lg(rg) alpha_du alpha_pr  ls
  20  6.6529318e-04 0.00e+00 4.59e-04  -7.7 2.69e-03    -  8.49e-01 1.00e+00H  1
  21  6.6505446e-04 0.00e+00 2.08e-04  -7.9 2.50e-04    -  1.00e+00 1.00e+00h  1
  22  6.6468295e-04 1.45e-04 1.40e-04  -7.9 1.03e-03    -  1.00e+00 5.29e-01H  1
  23  6.6498993e-04 0.00e+00 5.39e-05  -7.9 1.39e-03    -  1.00e+00 1.00e+00h  1
  24  6.6487590e-04 0.00e+00 4.02e-05  -7.9 8.58e-04    -  1.00e+00 1.00e+00h  1
  25  6.6480825e-04 0.00e+00 1.13e-04  -7.9 1.65e-03    -  1.00e+00 1.00e+00h  1
  26  6.6475738e-04 0.00e+00 4.50e-06  -7.9 2.68e-04    -  1.00e+00 1.00e+00h  1
  27  6.6483178e-04 0.00e+00 4.99e-05  -7.9 6.74e-05    -  1.00e+00 1.00e+00h  1

Number of Iterations....: 27

                                   (scaled)                 (unscaled)
Objective...............:   6.6483177808417397e-04    6.6483177808417397e-04
Dual infeasibility......:   4.9898296142298728e-05    4.9898296142298728e-05
Constraint violation....:   0.0000000000000000e+00    0.0000000000000000e+00
Complementarity.........:   1.2513197279700916e-08    1.2513197279700916e-08
Overall NLP error.......:   4.9898296142298728e-05    4.9898296142298728e-05


Number of objective function evaluations             = 34
Number of objective gradient evaluations             = 28
Number of equality constraint evaluations            = 0
Number of inequality constraint evaluations          = 34
Number of equality constraint Jacobian evaluations   = 0
Number of inequality constraint Jacobian evaluations = 28
Number of Lagrangian Hessian evaluations             = 0
Total CPU secs in IPOPT (w/o function evaluations)   =      0.939
Total CPU secs in NLP function evaluations           = 743601.878

EXIT: Stopping optimization at current point as requested by user.
